c read Graph
c width = 89
c time = 70 ms
c width = 7
c time = 106 ms
c width = 6
c time = 1526 ms
c width = 6
c time = 4961 ms
s td 96 7 102
b 1 1 2 18
b 2 2 3 18 19
b 3 15 16 33 34
b 4 3 18 19 35
b 5 15 33 34 51
b 6 52 69 70 87
b 7 68 84 85 101
b 8 52 70 87 88
b 9 68 84 100 101
b 10 3 4 5 21
b 11 3 5 21 36 37 52
b 12 5 6 21 22 36 37 52
b 13 6 21 22 36 37 38 52
b 14 6 22 36 37 38 52 53
b 15 6 22 37 38 52 53 54
b 16 6 22 38 52 53 54 70
b 17 6 22 38 52 54 70 88
b 18 6 22 38 54 70 71 88
b 19 6 22 38 54 55 71 88
b 20 6 22 38 39 55 71 88
b 21 6 22 23 39 55 71 88
b 22 6 7 23 39 55 71 88
b 23 7 23 39 55 71 72 88
b 24 7 23 39 55 56 72 88
b 25 7 23 39 40 56 72 88
b 26 7 23 24 40 56 72 88
b 27 7 8 24 40 56 72 88
b 28 8 24 40 56 72 88 89
b 29 8 24 40 56 72 73 89
b 30 8 24 40 56 57 73 89
b 31 8 24 40 41 57 73 89
b 32 8 24 25 41 57 73 89
b 33 8 9 25 41 57 73 89
b 34 9 25 41 57 73 89 90
b 35 9 25 41 57 73 74 90
b 36 9 25 41 57 58 74 90
b 37 9 25 41 42 58 74 90
b 38 9 25 26 42 58 74 90
b 39 9 26 42 58 74 90 91
b 40 9 26 42 58 74 75 91
b 41 9 26 42 58 59 75 91
b 42 9 26 42 43 59 75 91
b 43 9 26 27 43 59 75 91
b 44 9 11 27 43 59 75 91
b 45 11 27 43 59 75 91 92
b 46 11 27 43 59 75 76 92
b 47 11 27 43 59 60 76 92
b 48 11 27 43 44 60 76 92
b 49 11 27 44 60 76 92 93
b 50 11 27 44 60 76 77 93
b 51 11 27 44 60 61 77 93
b 52 11 27 44 45 61 77 93
b 53 11 27 29 45 61 77 93
b 54 11 13 29 45 61 77 93
b 55 13 29 45 61 77 93 94
b 56 13 29 45 61 77 78 94
b 57 13 29 45 61 62 78 94
b 58 13 29 45 62 78 94 95
b 59 13 29 45 62 78 79 95
b 60 13 29 45 62 63 79 95
b 61 13 29 45 47 63 79 95
b 62 13 29 31 47 63 79 95
b 63 13 31 47 63 79 95 96
b 64 13 31 47 63 79 80 96
b 65 13 31 47 63 80 96 97
b 66 13 31 47 63 80 81 97
b 67 13 31 47 63 65 81 97
b 68 13 31 47 49 65 81 97
b 69 13 31 49 65 81 97 98
b 70 13 31 49 65 81 98 99
b 71 13 31 49 65 81 83 99
b 72 13 31 49 65 67 83 99
b 73 13 31 49 67 68 83 99
b 74 3 20 21 36 37 52
b 75 3 20 35 36 52
b 76 3 19 20 35 36
b 77 29 45 46 47 63
b 78 9 10 11 27
b 79 11 12 13 29
b 80 11 27 28 29 45
b 81 13 29 30 31 47
b 82 47 63 64 65 81
b 83 31 47 48 49 65
b 84 65 81 82 83 99
b 85 49 65 66 67 83
b 86 67 68 83 99 100
b 87 67 68 83 84 100
b 88 13 15 31 49 67 68
b 89 15 31 49 50 67 68
b 90 15 31 32 49 50 68
b 91 15 32 50 51 68
b 92 15 32 33 50 51
b 93 13 14 15 31
b 94 85 101 102
b 95 69 86 87
b 96 16 17 34
1 2
2 4
3 96
3 5
4 76
5 92
6 95
6 8
7 94
7 9
8 17
9 87
10 11
11 74
11 12
12 13
13 14
14 15
15 16
16 17
17 18
18 19
19 20
20 21
21 22
22 23
23 24
24 25
25 26
26 27
27 28
28 29
29 30
30 31
31 32
32 33
33 34
34 35
35 36
36 37
37 38
38 39
39 40
40 41
41 42
42 43
43 44
44 78
44 45
45 46
46 47
47 48
48 49
49 50
50 51
51 52
52 53
53 80
53 54
54 79
54 55
55 56
56 57
57 58
58 59
59 60
60 61
61 77
61 62
62 81
62 63
63 64
64 65
65 66
66 67
67 82
67 68
68 83
68 69
69 70
70 71
71 84
71 72
72 85
72 73
73 86
73 88
74 75
75 76
86 87
88 93
88 89
89 90
90 91
91 92
